
Gurobi 8.1.1 (linux64, Python) logging started Tue Jun  4 19:36:32 2019

Academic license - for non-commercial use only
Optimize a model with 64 rows, 96 columns and 468 nonzeros
Model has 32 quadratic objective terms
Coefficient statistics:
  Matrix range     [1e+00, 1e+06]
  Objective range  [0e+00, 0e+00]
  QObjective range [1e+03, 3e+04]
  Bounds range     [0e+00, 0e+00]
  RHS range        [2e+00, 3e+00]
Presolve removed 56 rows and 56 columns
Presolve time: 0.00s
Presolved: 8 rows, 40 columns, 118 nonzeros
Presolved model has 32 quadratic objective terms
Ordering time: 0.00s

Barrier statistics:
 Free vars  : 40
 AA' NZ     : 2.300e+01
 Factor NZ  : 3.600e+01
 Factor Ops : 2.040e+02 (less than 1 second per iteration)
 Threads    : 1

                  Objective                Residual
Iter       Primal          Dual         Primal    Dual     Compl     Time
   0   2.22807166e-01 -2.22807166e-01  2.10e-13 4.24e-01  0.00e+00     0s
   1   1.31663590e-09  3.18553228e-05  1.39e-12 4.52e-06  0.00e+00     0s
   2   9.42260866e-18  2.70469909e-09  4.76e-13 3.89e-10  0.00e+00     0s

Barrier solved model in 2 iterations and 0.00 seconds
Optimal objective 9.42260866e-18

Optimize a model with 64 rows, 96 columns and 468 nonzeros
Model has 32 quadratic objective terms
Coefficient statistics:
  Matrix range     [1e+00, 1e+06]
  Objective range  [0e+00, 0e+00]
  QObjective range [1e+03, 3e+04]
  Bounds range     [0e+00, 0e+00]
  RHS range        [2e+00, 6e+00]
Presolve removed 56 rows and 56 columns
Presolve time: 0.00s
Presolved: 8 rows, 40 columns, 118 nonzeros
Presolved model has 32 quadratic objective terms
Ordering time: 0.00s

Barrier statistics:
 Free vars  : 40
 AA' NZ     : 2.300e+01
 Factor NZ  : 3.600e+01
 Factor Ops : 2.040e+02 (less than 1 second per iteration)
 Threads    : 1

                  Objective                Residual
Iter       Primal          Dual         Primal    Dual     Compl     Time
   0   3.49792539e+00 -3.49792539e+00  8.36e-13 1.74e+00  0.00e+00     0s
   1   2.28505263e-08  5.50965277e-04  8.70e-12 1.90e-05  0.00e+00     0s
   2   1.63138534e-16  4.69507832e-08  4.10e-12 1.63e-09  0.00e+00     0s

Barrier solved model in 2 iterations and 0.01 seconds
Optimal objective 1.63138534e-16

Optimize a model with 64 rows, 96 columns and 468 nonzeros
Model has 32 quadratic objective terms
Coefficient statistics:
  Matrix range     [1e+00, 1e+06]
  Objective range  [0e+00, 0e+00]
  QObjective range [1e+03, 3e+04]
  Bounds range     [0e+00, 0e+00]
  RHS range        [7e-02, 2e-01]
Presolve removed 56 rows and 56 columns
Presolve time: 0.00s
Presolved: 8 rows, 40 columns, 118 nonzeros
Presolved model has 32 quadratic objective terms
Ordering time: 0.00s

Barrier statistics:
 Free vars  : 40
 AA' NZ     : 2.300e+01
 Factor NZ  : 3.600e+01
 Factor Ops : 2.040e+02 (less than 1 second per iteration)
 Threads    : 1

                  Objective                Residual
Iter       Primal          Dual         Primal    Dual     Compl     Time
   0   5.81188261e-05 -5.81188261e-05  3.03e-15 6.45e-03  0.00e+00     0s
   1   3.63099418e-13  8.78359040e-09  1.45e-14 7.01e-08  0.00e+00     0s

Barrier solved model in 1 iterations and 0.00 seconds
Optimal objective 3.63099418e-13

Optimize a model with 32 rows, 96 columns and 187 nonzeros
Model has 64 quadratic objective terms
Coefficient statistics:
  Matrix range     [1e+00, 1e+06]
  Objective range  [0e+00, 0e+00]
  QObjective range [8e+00, 8e+02]
  Bounds range     [0e+00, 0e+00]
  RHS range        [4e+01, 3e+02]
Presolve removed 32 rows and 96 columns
Presolve time: 0.00s
Presolve: All rows and columns removed

Barrier solved model in 0 iterations and 0.00 seconds
Optimal objective 0.00000000e+00
